\ Model caixeiro_viajante_bb_4230
\ LP format - for model browsing. Use MPS format to capture full model detail.
Minimize
  99999 C0 + 99999 C1 + 99999 C2 + 99999 C3 + 99999 C4 + 99999 C5 + 99999 C6
   + 99999 C7 + 99999 C8 + 99999 C9 + 99999 C10 + 853.4453702493206 C11
   + 846.5754544043904 C12 + 99999 C13 + 99999 C14 + 612.6116224819767 C15
   + 99999 C16 + 769.0624161926 C17 + 99999 C18 + 99999 C19
   + 886.3503821852845 C20 + 853.2338483674918 C21 + 676.0118342159403 C22
   + 364.8191332701726 C23 + 738.9756423590699 C24 + 99999 C25 + 99999 C26
   + 99999 C27 + 853.4453702493206 C28 + 886.3503821852845 C29 + 99999 C30
   + 613.8346682943218 C31 + 521.8524695735376 C32 + 562.7379496710703 C33
   + 848.8262484160113 C34 + 99999 C35 + 99999 C36 + 846.5754544043904 C37
   + 853.2338483674918 C38 + 99999 C39 + 700.0628543209531 C40
   + 500.1209853625421 C41 + 661.314599869079 C42 + 941.3718712602368 C43
   + 99999 C44 + 99999 C45 + 99999 C46 + 676.0118342159403 C47
   + 613.8346682943218 C48 + 700.0628543209531 C49 + 472.1493407810711 C50
   + 99999 C51 + 99999 C52 + 799.0150186323158 C53 + 99999 C54 + 99999 C55
   + 364.8191332701726 C56 + 521.8524695735376 C57 + 500.1209853625421 C58
   + 472.1493407810711 C59 + 500.6395909234506 C60 + 678.8755408762346 C61
   + 438.1141403789656 C62 + 99999 C63 + 612.6116224819767 C64
   + 738.9756423590699 C65 + 562.7379496710703 C66 + 661.314599869079 C67
   + 99999 C68 + 500.6395909234506 C69 + 99999 C70 + 785.2082526311093 C71
   + 99999 C72 + 99999 C73 + 99999 C74 + 848.8262484160113 C75
   + 941.3718712602368 C76 + 99999 C77 + 678.8755408762346 C78 + 99999 C79
   + 1038.152204640533 C80 + 99999 C81 + 769.0624161926 C82 + 99999 C83
   + 99999 C84 + 99999 C85 + 799.0150186323158 C86 + 438.1141403789656 C87
   + 785.2082526311093 C88 + 1038.152204640533 C89 + 0 C90 + 0 C91 + 0 C92
   + 0 C93 + 0 C94 + 0 C95 + 0 C96 + 0 C97 + 0 C98 + 0 C99
Subject To
 R0: C9 + C18 + C27 + C36 + C45 + C54 + C63 + C72 + C81 = 1
 R1: C0 + C19 + C28 + C37 + C46 + C55 + C64 + C73 + C82 = 1
 R2: C1 + C10 + C29 + C38 + C47 + C56 + C65 + C74 + C83 = 1
 R3: C2 + C11 + C20 + C39 + C48 + C57 + C66 + C75 + C84 = 1
 R4: C3 + C12 + C21 + C30 + C49 + C58 + C67 + C76 + C85 = 1
 R5: C4 + C13 + C22 + C31 + C40 + C59 + C68 + C77 + C86 = 1
 R6: C5 + C14 + C23 + C32 + C41 + C50 + C69 + C78 + C87 = 1
 R7: C6 + C15 + C24 + C33 + C42 + C51 + C60 + C79 + C88 = 1
 R8: C7 + C16 + C25 + C34 + C43 + C52 + C61 + C70 + C89 = 1
 R9: C8 + C17 + C26 + C35 + C44 + C53 + C62 + C71 + C80 = 1
 R10: C0 + C1 + C2 + C3 + C4 + C5 + C6 + C7 + C8 = 1
 R11: C9 + C10 + C11 + C12 + C13 + C14 + C15 + C16 + C17 = 1
 R12: C18 + C19 + C20 + C21 + C22 + C23 + C24 + C25 + C26 = 1
 R13: C27 + C28 + C29 + C30 + C31 + C32 + C33 + C34 + C35 = 1
 R14: C36 + C37 + C38 + C39 + C40 + C41 + C42 + C43 + C44 = 1
 R15: C45 + C46 + C47 + C48 + C49 + C50 + C51 + C52 + C53 = 1
 R16: C54 + C55 + C56 + C57 + C58 + C59 + C60 + C61 + C62 = 1
 R17: C63 + C64 + C65 + C66 + C67 + C68 + C69 + C70 + C71 = 1
 R18: C72 + C73 + C74 + C75 + C76 + C77 + C78 + C79 + C80 = 1
 R19: C81 + C82 + C83 + C84 + C85 + C86 + C87 + C88 + C89 = 1
Bounds
Binaries
 C0 C1 C2 C3 C4 C5 C6 C7 C8 C9 C10 C11 C12 C13 C14 C15 C16 C17 C18 C19 C20
 C21 C22 C23 C24 C25 C26 C27 C28 C29 C30 C31 C32 C33 C34 C35 C36 C37 C38
 C39 C40 C41 C42 C43 C44 C45 C46 C47 C48 C49 C50 C51 C52 C53 C54 C55 C56
 C57 C58 C59 C60 C61 C62 C63 C64 C65 C66 C67 C68 C69 C70 C71 C72 C73 C74
 C75 C76 C77 C78 C79 C80 C81 C82 C83 C84 C85 C86 C87 C88 C89
End
